language Essence 1.3

letting class be
        function(1 --> 9, 2 --> 8, 3 --> 5, 4 --> 6, 5 --> 8, 6 --> 5, 7 --> 1, 8 --> 8, 9 --> 7, 10 --> 9, 11 --> 1,
                 12 --> 9, 13 --> 5, 14 --> 1, 15 --> 2, 16 --> 9, 17 --> 1, 18 --> 9, 19 --> 3, 20 --> 8, 21 --> 4,
                 22 --> 3, 23 --> 8)
letting deck_length be 91
letting deck_width be 47
letting length be
        function(1 --> 2, 2 --> 1, 3 --> 1, 4 --> 1, 5 --> 1, 6 --> 6, 7 --> 1, 8 --> 1, 9 --> 2, 10 --> 19, 11 --> 9,
                 12 --> 1, 13 --> 1, 14 --> 1, 15 --> 1, 16 --> 1, 17 --> 1, 18 --> 1, 19 --> 1, 20 --> 1, 21 --> 1,
                 22 --> 27, 23 --> 1)
letting n_classes be 9
letting n_containers be 23
letting separation be function({3, 6} --> 22, {3, 7} --> 6)
letting width be
        function(1 --> 1, 2 --> 1, 3 --> 1, 4 --> 1, 5 --> 1, 6 --> 32, 7 --> 1, 8 --> 1, 9 --> 23, 10 --> 2, 11 --> 1,
                 12 --> 1, 13 --> 35, 14 --> 1, 15 --> 1, 16 --> 1, 17 --> 1, 18 --> 23, 19 --> 1, 20 --> 1, 21 --> 1,
                 22 --> 31, 23 --> 1)
